(set-logic QF_LIA)
(declare-fun x0 () Int)
(declare-fun x1 () Int)
(declare-fun x2 () Int)
(declare-fun x3 () Int)
(declare-fun x4 () Int)
(declare-fun x5 () Int)
(declare-fun x6 () Int)
(declare-fun x7 () Int)
(declare-fun x8 () Int)
(declare-fun x9 () Int)
(declare-fun A0 () Bool)
(declare-fun A1 () Bool)
(declare-fun A2 () Bool)
(declare-fun A3 () Bool)
(declare-fun A4 () Bool)
(declare-fun A5 () Bool)
(declare-fun A6 () Bool)
(declare-fun A7 () Bool)
(declare-fun A8 () Bool)
(declare-fun A9 () Bool)
(assert (let ((.def_0 (* (- 1) x4))) (let ((.def_1 (< .def_0 1))) (let ((.def_2 (not A2))) (let ((.def_3 (and .def_2 .def_1))) (let ((.def_4 (* 1 x2))) (let ((.def_5 (* 1 x1))) (let ((.def_6 (+ .def_5 .def_4))) (let ((.def_7 (< .def_6 (- 1)))) (let ((.def_8 (or .def_7 A6))) (let ((.def_9 (and .def_8 .def_3))) (let ((.def_10 (not .def_9))) (let ((.def_11 (* 1 x6))) (let ((.def_12 (* 1 x4))) (let ((.def_13 (+ .def_12 .def_11))) (let ((.def_14 (< .def_13 (- 1)))) (let ((.def_15 (or A0 .def_14))) (let ((.def_16 (not .def_15))) (let ((.def_17 (not A3))) (let ((.def_18 (and .def_17 .def_17))) (let ((.def_19 (not .def_18))) (let ((.def_20 (or .def_19 .def_16))) (let ((.def_21 (not .def_20))) (let ((.def_22 (and .def_21 .def_10))) (let ((.def_23 (not .def_22))) (let ((.def_24 (* 1 x5))) (let ((.def_25 (* (- 1) x1))) (let ((.def_26 (+ .def_25 .def_24))) (let ((.def_27 (< .def_26 (- 1)))) (let ((.def_28 (not .def_27))) (let ((.def_29 (not A1))) (let ((.def_30 (and .def_29 .def_28))) (let ((.def_31 (and A1 A1))) (let ((.def_32 (and .def_31 .def_30))) (let ((.def_33 (not .def_32))) (let ((.def_34 (* 1 x9))) (let ((.def_35 (+ .def_0 .def_34))) (let ((.def_36 (< .def_35 (- 1)))) (let ((.def_37 (and .def_29 .def_36))) (let ((.def_38 (not A7))) (let ((.def_39 (* 1 x3))) (let ((.def_40 (< .def_39 (- 1)))) (let ((.def_41 (= .def_40 .def_38))) (let ((.def_42 (= .def_41 .def_37))) (let ((.def_43 (and .def_42 .def_33))) (let ((.def_44 (or .def_43 .def_23))) (let ((.def_45 (not .def_44))) (let ((.def_46 (* 1 x0))) (let ((.def_47 (+ .def_46 .def_12))) (let ((.def_48 (< .def_47 (- 1)))) (let ((.def_49 (not .def_48))) (let ((.def_50 (and .def_29 .def_49))) (let ((.def_51 (< .def_34 (- 1)))) (let ((.def_52 (not .def_51))) (let ((.def_53 (< .def_46 (- 1)))) (let ((.def_54 (or .def_53 .def_52))) (let ((.def_55 (not .def_54))) (let ((.def_56 (or .def_55 .def_50))) (let ((.def_57 (+ .def_25 .def_46))) (let ((.def_58 (< .def_57 (- 1)))) (let ((.def_59 (+ .def_0 .def_39))) (let ((.def_60 (< .def_59 (- 1)))) (let ((.def_61 (or .def_60 .def_58))) (let ((.def_62 (not .def_61))) (let ((.def_63 (not A4))) (let ((.def_64 (and .def_63 A9))) (let ((.def_65 (not .def_64))) (let ((.def_66 (or .def_65 .def_62))) (let ((.def_67 (or .def_66 .def_56))) (let ((.def_68 (not A6))) (let ((.def_69 (or .def_68 .def_68))) (let ((.def_70 (and A8 .def_2))) (let ((.def_71 (not .def_70))) (let ((.def_72 (or .def_71 .def_69))) (let ((.def_73 (= A6 A4))) (let ((.def_74 (* (- 1) x6))) (let ((.def_75 (< .def_74 (- 1)))) (let ((.def_76 (not .def_75))) (let ((.def_77 (or .def_76 A5))) (let ((.def_78 (not .def_77))) (let ((.def_79 (or .def_78 .def_73))) (let ((.def_80 (or .def_79 .def_72))) (let ((.def_81 (not .def_80))) (let ((.def_82 (and .def_81 .def_67))) (let ((.def_83 (and .def_82 .def_45))) (let ((.def_84 (not .def_83))) (let ((.def_85 (<= x9 1))) (let ((.def_86 (<= 0 x9))) (let ((.def_87 (<= x8 1))) (let ((.def_88 (<= 0 x8))) (let ((.def_89 (<= x7 1))) (let ((.def_90 (<= 0 x7))) (let ((.def_91 (<= x6 1))) (let ((.def_92 (<= 0 x6))) (let ((.def_93 (<= x5 1))) (let ((.def_94 (<= 0 x5))) (let ((.def_95 (<= x4 1))) (let ((.def_96 (<= 0 x4))) (let ((.def_97 (<= x3 1))) (let ((.def_98 (<= 0 x3))) (let ((.def_99 (<= x2 1))) (let ((.def_100 (<= 0 x2))) (let ((.def_101 (<= x1 1))) (let ((.def_102 (<= 0 x1))) (let ((.def_103 (<= x0 1))) (let ((.def_104 (<= 0 x0))) (let ((.def_105 (and .def_104 .def_103 .def_102 .def_101 .def_100 .def_99 .def_98 .def_97 .def_96 .def_95 .def_94 .def_93 .def_92 .def_91 .def_90 .def_89 .def_88 .def_87 .def_86 .def_85 .def_84))) .def_105)))))))))))))))))))))))))))))))))))))))))))))))))))))))))))))))))))))))))))))))))))))))))))))))))))))))))))
(check-sat)
